decision_x1=[0,2];
decision_x2=[0,2];
decision_x3=[0,2];
decision_x4=[0,2];
decision_x5=[0,2];
random_y1=[0,2];
constraint_x2_x1=[
0,1,8.2|
0,2,2.6|
1,0,8|
1,2,4.2|
2,0,9.5|
2,1,4.7|
];
constraint_x3_x1=[
0,1,0.03|
0,2,0.53|
1,0,3.6|
1,2,4.4|
2,0,1.1|
2,1,9|
];
constraint_x3_x2=[
0,1,7.3|
0,2,0.31|
1,0,2.6|
1,2,0.79|
2,0,2.3|
2,1,1.1|
];
constraint_x5_x2=[
0,1,4.5|
0,2,4.1|
1,0,4.2|
1,2,0.72|
2,0,7.1|
2,1,9.9|
];
constraint_x5_x4=[
0,1,0.84|
0,2,8.7|
1,0,2.6|
1,2,1.2|
2,0,4.1|
2,1,7.7|
];
constraint_x1_y1=[
0,0,8.6|
0,1,0.29|
0,2,1.7|
1,0,8.2|
1,1,5.4|
1,2,0.65|
2,0,0.23|
2,1,3.2|
2,2,4.3|
];
initial_distribution_y1=[0.35,0.28,0.37];
transition_y1=[
0.45,0.45,0.11|
0.15,0.57,0.28|
0.32,0.39,0.29|
];
